p cnf 32 32
1 2 0
-1 -2 0
9 10 0
-9 -10 0
17 18 0
-17 -18 0
25 26 0
-25 -26 0
3 4 0
-3 -4 0
11 12 0
-11 -12 0
19 20 0
-19 -20 0
27 28 0
-27 -28 0
5 6 0
-5 -6 0
13 14 0
-13 -14 0
21 22 0
-21 -22 0
29 30 0
-29 -30 0
7 8 0
-7 -8 0
15 16 0
-15 -16 0
23 24 0
-23 -24 0
31 32 0
-31 -32 0
